25° run output:
{
    "Function": "ClusterB300.tsp",
    "Problem dimension": [
        128,
        123,
        203,
        216,
        217,
        286,
        20,
        77,
        11,
        109,
        54,
        148,
        51,
        159,
        50,
        161,
        297,
        246,
        154,
        141,
        9,
        160,
        52,
        253,
        176,
        117,
        299,
        211,
        1,
        262,
        40,
        15,
        280,
        214,
        273,
        283,
        122,
        80,
        33,
        63,
        152,
        2,
        275,
        104,
        45,
        277,
        108,
        165,
        62,
        255,
        222,
        130,
        91,
        149,
        177,
        92,
        249,
        173,
        142,
        215,
        213,
        31,
        133,
        12,
        86,
        157,
        260,
        41,
        138,
        5,
        71,
        106,
        134,
        23,
        81,
        212,
        236,
        219,
        32,
        57,
        208,
        73,
        140,
        120,
        261,
        44,
        227,
        58,
        259,
        292,
        209,
        118,
        158,
        94,
        156,
        184,
        135,
        221,
        169,
        268,
        289,
        98,
        182,
        228,
        114,
        244,
        180,
        72,
        241,
        99,
        194,
        25,
        198,
        121,
        79,
        291,
        290,
        284,
        112,
        193,
        14,
        195,
        49,
        163,
        83,
        224,
        82,
        16,
        257,
        155,
        84,
        29,
        145,
        271,
        153,
        75,
        95,
        88,
        27,
        132,
        220,
        252,
        197,
        247,
        18,
        170,
        13,
        278,
        100,
        131,
        66,
        175,
        21,
        232,
        226,
        210,
        96,
        64,
        167,
        90,
        78,
        87,
        127,
        162,
        56,
        137,
        89,
        183,
        38,
        263,
        59,
        6,
        136,
        143,
        19,
        111,
        242,
        172,
        76,
        74,
        113,
        24,
        178,
        0,
        250,
        245,
        274,
        146,
        231,
        293,
        196,
        28,
        264,
        298,
        229,
        36,
        230,
        139,
        110,
        234,
        233,
        22,
        37,
        97,
        43,
        101,
        125,
        124,
        223,
        248,
        276,
        206,
        68,
        296,
        200,
        238,
        65,
        288,
        254,
        150,
        272,
        168,
        282,
        93,
        265,
        105,
        8,
        266,
        201,
        17,
        191,
        225,
        42,
        60,
        48,
        190,
        192,
        115,
        199,
        26,
        126,
        270,
        85,
        47,
        186,
        287,
        281,
        69,
        207,
        35,
        34,
        103,
        46,
        61,
        119,
        294,
        187,
        237,
        179,
        4,
        185,
        205,
        116,
        3,
        267,
        295,
        144,
        107,
        189,
        147,
        171,
        258,
        204,
        188,
        174,
        240,
        67,
        7,
        39,
        70,
        251,
        151,
        239,
        202,
        10,
        218,
        166,
        102,
        256,
        164,
        129,
        30,
        269,
        243,
        279,
        235,
        53,
        55,
        181,
        285
    ],
    "Global Optimum": 0,
    "Algorithm": "Genetic algorithm",
    "Parameters": {
        "population": 30,
        "offspring": 30,
        "mutation probability": 0.0033333333333333335,
        "crossover probability": 0.9
    },
    "Fitness": 257112,
    "Solution": [
        128,
        123,
        203,
        216,
        217,
        286,
        20,
        77,
        11,
        109,
        54,
        148,
        51,
        159,
        50,
        161,
        297,
        246,
        154,
        141,
        9,
        160,
        52,
        253,
        176,
        117,
        299,
        211,
        1,
        262,
        40,
        15,
        280,
        214,
        273,
        283,
        122,
        80,
        33,
        63,
        152,
        2,
        275,
        104,
        45,
        277,
        108,
        165,
        62,
        255,
        222,
        130,
        91,
        149,
        177,
        92,
        249,
        173,
        142,
        215,
        213,
        31,
        133,
        12,
        86,
        157,
        260,
        41,
        138,
        5,
        71,
        106,
        134,
        23,
        81,
        212,
        236,
        219,
        32,
        57,
        208,
        73,
        140,
        120,
        261,
        44,
        227,
        58,
        259,
        292,
        209,
        118,
        158,
        94,
        156,
        184,
        135,
        221,
        169,
        268,
        289,
        98,
        182,
        228,
        114,
        244,
        180,
        72,
        241,
        99,
        194,
        25,
        198,
        121,
        79,
        291,
        290,
        284,
        112,
        193,
        14,
        195,
        49,
        163,
        83,
        224,
        82,
        16,
        257,
        155,
        84,
        29,
        145,
        271,
        153,
        75,
        95,
        88,
        27,
        132,
        220,
        252,
        197,
        247,
        18,
        170,
        13,
        278,
        100,
        131,
        66,
        175,
        21,
        232,
        226,
        210,
        96,
        64,
        167,
        90,
        78,
        87,
        127,
        162,
        56,
        137,
        89,
        183,
        38,
        263,
        59,
        6,
        136,
        143,
        19,
        111,
        242,
        172,
        76,
        74,
        113,
        24,
        178,
        0,
        250,
        245,
        274,
        146,
        231,
        293,
        196,
        28,
        264,
        298,
        229,
        36,
        230,
        139,
        110,
        234,
        233,
        22,
        37,
        97,
        43,
        101,
        125,
        124,
        223,
        248,
        276,
        206,
        68,
        296,
        200,
        238,
        65,
        288,
        254,
        150,
        272,
        168,
        282,
        93,
        265,
        105,
        8,
        266,
        201,
        17,
        191,
        225,
        42,
        60,
        48,
        190,
        192,
        115,
        199,
        26,
        126,
        270,
        85,
        47,
        186,
        287,
        281,
        69,
        207,
        35,
        34,
        103,
        46,
        61,
        119,
        294,
        187,
        237,
        179,
        4,
        185,
        205,
        116,
        3,
        267,
        295,
        144,
        107,
        189,
        147,
        171,
        258,
        204,
        188,
        174,
        240,
        67,
        7,
        39,
        70,
        251,
        151,
        239,
        202,
        10,
        218,
        166,
        102,
        256,
        164,
        129,
        30,
        269,
        243,
        279,
        235,
        53,
        55,
        181,
        285
    ],
    "Nb of functions evaluations": 400020,
    "Computational time in seconds": 750.7726166248322,
    "Stopping criterion in evaluations": 400000
}